============================[ Problem Statistics ]=============================|                                                                             ||  Number of variables:          4242                                         ||  Number of clauses:           10182                                         ||  Parse time:                   0.57 s                                       ||                                                                             |============================[ Search Statistics ]==============================| Conflicts |          ORIGINAL         |          LEARNT          | Progress ||           |    Vars  Clauses Literals |    Limit  Clauses Lit/Cl |          |===============================================================================|       100 |    1591     6387   909118 |     2341      100     53 | 62.501 % ||       250 |    1591     6387   909118 |     2576      250     75 | 62.495 % |===============================================================================restarts              : 3conflicts             : 315            (366 /sec)decisions             : 580            (0.00 % random) (674 /sec)propagations          : 11883          (13817 /sec)conflict literals     : 25095          (94.70 % deleted)CPU time              : 0.86 sSATISFIABLE